0			0			0			0			0			0			0			0			0			0			0			0			0			0			0			0			0			0			0			0			0			0			0			0			0			0			0			0			0			0			0			0			0			0			0			0			0			0			0			0			0			0			0			0			0			0			

0			0			0			0			0			0			0			0			0			0			0			0			0			0			0			100			100			100			100			100			100			100			100			100			100			100			100			100			100			100			100			100			100			100			100			100			100			100			100			100			100			100			100			100			100			100			

0			0			0			0			0			0			0			0			0			0			0			0			0			0			0			100			100			100			100			100			100			100			100			100			100			350			350			350			350			350			350			350			350			350			350			350			350			350			350			350			450			450			450			450			450			450			

0			0			0			0			0			0			0			0			0			0			0			0			0			0			0			100			100			100			100			100			100			100			100			100			100			350			350			350			350			350			350			350			350			350			350			350			350			350			350			350			450			450			450			450			450			450			

0			0			0			0			0			0			0			0			0			0			0			0			0			0			0			100			100			100			100			100			100			100			100			100			100			350			350			350			350			350			350			350			350			350			350			350			350			350			350			350			450			450			450			450			450			450			

0			0			0			0			0			0			0			0			0			0			0			0			0			0			0			100			100			100			100			100			100			100			100			275			275			350			350			350			350			350			350			350			350			350			350			350			350			350			375			375			450			450			450			450			450			450			

0			0			0			0			0			0			0			0			0			0			0			0			0			0			0			100			100			100			100			100			100			100			100			275			275			350			350			350			350			350			350			350			350			350			350			350			350			350			375			375			450			450			450			450			450			450			

